unsat
(:added-eqs                       1479481
 :arith-eq-adapter                3021
 :arith-bound-propagations-lp     7936
 :arith-branch                    373
 :arith-conflicts                 21146
 :arith-cube-calls                118
 :arith-diseq                     124631
 :arith-fixed-eqs                 150688
 :arith-gcd-calls                 1850
 :arith-gcd-conflict              13
 :arith-gomory-cuts               233
 :arith-grobner-calls             1050
 :arith-grobner-conflicts         826
 :arith-horner-calls              248
 :arith-horner-conflicts          27
 :arith-horner-cross-nested-forms 126436
 :arith-lower                     584851
 :arith-make-feasible             222668
 :arith-max-columns               5281
 :arith-max-rows                  2099
 :arith-nla-add-bounds            142
 :arith-nla-lemmas                5639
 :arith-nla-propagate-bounds      13555
 :arith-nla-propagate-eq          207380
 :arith-nra-calls                 168
 :arith-offset-eqs                325645
 :arith-patches                   1837
 :arith-patches-success           1335
 :arith-upper                     950170
 :binary-propagations             2259528
 :cnf-encoding-aux-vars           60
 :conflicts                       4758
 :decisions                       1459115
 :del-clause                      14388
 :elim-unconstrained              431
 :final-checks                    3152
 :max-memory                      172.89
 :memory                          103.90
 :minimized-lits                  22364
 :mk-bool-var                     34052
 :mk-clause                       19024
 :mk-clause-binary                47399
 :nlsat-conflicts                 11339
 :nlsat-decisions                 7123
 :nlsat-propagations              1943550
 :nlsat-restarts                  12
 :nlsat-stages                    1094640
 :num-allocs                      271949106108.00
 :num-checks                      2
 :propagations                    2929799
 :restarts                        36
 :rlimit-count                    55674370
 :solve-eqs-elim-vars             389
 :solve-eqs-steps                 3425
 :time                            37.00
 :total-time                      37.01)
